Maximize
1.0 x0 +5.0 x1 +9.0 x2 +13.0 x3 +29.0 x4 +33.0 x5 +37.0 x6 +41.0 x7 +45.0 x8 +49.0 x9 +53.0 x10 +57.0 x11 +61.0 x12 +65.0 x13 +97.0 x14 +129.0 x15 +161.0 x16 +193.0 x17 
Subject To
1.0 x0 -3.0 x1 -7.0 x2 -3.0 x3 +13.0 x4 +17.0 x5 +21.0 x6 +17.0 x7 +13.0 x8 +17.0 x9 +21.0 x10 +17.0 x11 +13.0 x12 +17.0 x13 -15.0 x14 +17.0 x15 -15.0 x16 +17.0 x17  <= 15
1.0 x0 -3.0 x1 -7.0 x2 -3.0 x3 +13.0 x4 +17.0 x5 +21.0 x6 +17.0 x7 +13.0 x8 +17.0 x9 +21.0 x10 +17.0 x11 +13.0 x12 +17.0 x13 -15.0 x14 +17.0 x15 -15.0 x16 +17.0 x17  >= -1
1.0 x0 -3.0 x1 -7.0 x2 -3.0 x3 +13.0 x4 +17.0 x5 +21.0 x6 +17.0 x7 +13.0 x8 +17.0 x9 +21.0 x10 +17.0 x11 +13.0 x12 +17.0 x13 +49.0 x14 +17.0 x15 +49.0 x16 +17.0 x17  <= 15
1.0 x0 -3.0 x1 -7.0 x2 -3.0 x3 +13.0 x4 +17.0 x5 +21.0 x6 +17.0 x7 +13.0 x8 +17.0 x9 +21.0 x10 +17.0 x11 +13.0 x12 +17.0 x13 +49.0 x14 +17.0 x15 +49.0 x16 +17.0 x17  >= -1
1.0 x0 +5.0 x1 +9.0 x2 +13.0 x3 +29.0 x4 +33.0 x5 +37.0 x6 +41.0 x7 +45.0 x8 +49.0 x9 +53.0 x10 +57.0 x11 +61.0 x12 +65.0 x13 +33.0 x14 +1.0 x15 -31.0 x16 -63.0 x17  <= 15
1.0 x0 +5.0 x1 +9.0 x2 +13.0 x3 +29.0 x4 +33.0 x5 +37.0 x6 +41.0 x7 +45.0 x8 +49.0 x9 +53.0 x10 +57.0 x11 +61.0 x12 +65.0 x13 +33.0 x14 +1.0 x15 -31.0 x16 -63.0 x17  >= -1
1.0 x0 -3.0 x1 -7.0 x2 -3.0 x3 -19.0 x4 -15.0 x5 -11.0 x6 -15.0 x7 -19.0 x8 -15.0 x9 -11.0 x10 -15.0 x11 -19.0 x12 -15.0 x13 -15.0 x14 -15.0 x15 -15.0 x16 -15.0 x17  <= 15
1.0 x0 -3.0 x1 -7.0 x2 -3.0 x3 -19.0 x4 -15.0 x5 -11.0 x6 -15.0 x7 -19.0 x8 -15.0 x9 -11.0 x10 -15.0 x11 -19.0 x12 -15.0 x13 -15.0 x14 -15.0 x15 -15.0 x16 -15.0 x17  >= -1
1.0 x0 -3.0 x1 -7.0 x2 -3.0 x3 -19.0 x4 -15.0 x5 -11.0 x6 -15.0 x7 -19.0 x8 -15.0 x9 -11.0 x10 -15.0 x11 -19.0 x12 -15.0 x13 -15.0 x14 -15.0 x15 -15.0 x16 -15.0 x17  <= 15
1.0 x0 -3.0 x1 -7.0 x2 -3.0 x3 -19.0 x4 -15.0 x5 -11.0 x6 -15.0 x7 -19.0 x8 -15.0 x9 -11.0 x10 -15.0 x11 -19.0 x12 -15.0 x13 -15.0 x14 -15.0 x15 -15.0 x16 -15.0 x17  >= -1
1.0 x0 +5.0 x1 +9.0 x2 +13.0 x3 -3.0 x4 +1.0 x5 +5.0 x6 +9.0 x7 +13.0 x8 +17.0 x9 +21.0 x10 +25.0 x11 +29.0 x12 +33.0 x13 +33.0 x14 +33.0 x15 +33.0 x16 +33.0 x17  <= 15
1.0 x0 +5.0 x1 +9.0 x2 +13.0 x3 -3.0 x4 +1.0 x5 +5.0 x6 +9.0 x7 +13.0 x8 +17.0 x9 +21.0 x10 +25.0 x11 +29.0 x12 +33.0 x13 +33.0 x14 +33.0 x15 +33.0 x16 +33.0 x17  >= -1
1.0 x0 +5.0 x1 +9.0 x2 +13.0 x3 -3.0 x4 +1.0 x5 +5.0 x6 +9.0 x7 +13.0 x8 +17.0 x9 +21.0 x10 +25.0 x11 +29.0 x12 +33.0 x13 +33.0 x14 +33.0 x15 +33.0 x16 +33.0 x17  <= 15
1.0 x0 +5.0 x1 +9.0 x2 +13.0 x3 -3.0 x4 +1.0 x5 +5.0 x6 +9.0 x7 +13.0 x8 +17.0 x9 +21.0 x10 +25.0 x11 +29.0 x12 +33.0 x13 +33.0 x14 +33.0 x15 +33.0 x16 +33.0 x17  >= -1
1.0 x0 +1.0 x1 +1.0 x2 +5.0 x3 +21.0 x4 +17.0 x5 +13.0 x6 +13.0 x7 +13.0 x8 +9.0 x9 +5.0 x10 +5.0 x11 +5.0 x12 +9.0 x13 +9.0 x14 +9.0 x15 +9.0 x16 +9.0 x17  <= 15
1.0 x0 +1.0 x1 +1.0 x2 +5.0 x3 +21.0 x4 +17.0 x5 +13.0 x6 +13.0 x7 +13.0 x8 +9.0 x9 +5.0 x10 +5.0 x11 +5.0 x12 +9.0 x13 +9.0 x14 +9.0 x15 +9.0 x16 +9.0 x17  >= -1
1.0 x0 +1.0 x1 +1.0 x2 +5.0 x3 -11.0 x4 -15.0 x5 -19.0 x6 -19.0 x7 -19.0 x8 -23.0 x9 -27.0 x10 -27.0 x11 -27.0 x12 -23.0 x13 -23.0 x14 -23.0 x15 -23.0 x16 -23.0 x17  <= 15
1.0 x0 +1.0 x1 +1.0 x2 +5.0 x3 -11.0 x4 -15.0 x5 -19.0 x6 -19.0 x7 -19.0 x8 -23.0 x9 -27.0 x10 -27.0 x11 -27.0 x12 -23.0 x13 -23.0 x14 -23.0 x15 -23.0 x16 -23.0 x17  >= -1
1.0 x0 +3.0 x1 +5.0 x2 +5.0 x3 +5.0 x4 +5.0 x5 +5.0 x6 +3.0 x7 +1.0 x8 +1.0 x9 +1.0 x10 -1.0 x11 -3.0 x12 -7.0 x13 -7.0 x14 -7.0 x15 -7.0 x16 -7.0 x17  <= 15
1.0 x0 +3.0 x1 +5.0 x2 +5.0 x3 +5.0 x4 +5.0 x5 +5.0 x6 +3.0 x7 +1.0 x8 +1.0 x9 +1.0 x10 -1.0 x11 -3.0 x12 -7.0 x13 -7.0 x14 -7.0 x15 -7.0 x16 -7.0 x17  >= -1
1.0 x0 -1.0 x1 -3.0 x2 -3.0 x3 -3.0 x4 -3.0 x5 -3.0 x6 -1.0 x7 +1.0 x8 +1.0 x9 +1.0 x10 +3.0 x11 +5.0 x12 +1.0 x13 +1.0 x14 +1.0 x15 +1.0 x16 +1.0 x17  <= 15
1.0 x0 -1.0 x1 -3.0 x2 -3.0 x3 -3.0 x4 -3.0 x5 -3.0 x6 -1.0 x7 +1.0 x8 +1.0 x9 +1.0 x10 +3.0 x11 +5.0 x12 +1.0 x13 +1.0 x14 +1.0 x15 +1.0 x16 +1.0 x17  >= -1
1.0 x0 +1.0 x1 +1.0 x2 -3.0 x3 -3.0 x4 -3.0 x5 -3.0 x6 -3.0 x7 -3.0 x8 -3.0 x9 -3.0 x10 -3.0 x11 -3.0 x12 +1.0 x13 +1.0 x14 +1.0 x15 +1.0 x16 +1.0 x17  <= 15
1.0 x0 +1.0 x1 +1.0 x2 -3.0 x3 -3.0 x4 -3.0 x5 -3.0 x6 -3.0 x7 -3.0 x8 -3.0 x9 -3.0 x10 -3.0 x11 -3.0 x12 +1.0 x13 +1.0 x14 +1.0 x15 +1.0 x16 +1.0 x17  >= -1
-1.0 x0 -3.0 x1 -5.0 x2 -7.0 x3 -7.0 x4 -7.0 x5 -7.0 x6 -7.0 x7 -7.0 x8 -7.0 x9 -7.0 x10 -7.0 x11 -7.0 x12 -7.0 x13 -7.0 x14 -7.0 x15 -7.0 x16 -7.0 x17  <= 15
-1.0 x0 -3.0 x1 -5.0 x2 -7.0 x3 -7.0 x4 -7.0 x5 -7.0 x6 -7.0 x7 -7.0 x8 -7.0 x9 -7.0 x10 -7.0 x11 -7.0 x12 -7.0 x13 -7.0 x14 -7.0 x15 -7.0 x16 -7.0 x17  >= -1
-1.0 x0 -3.0 x1 -5.0 x2 -7.0 x3 -7.0 x4 -7.0 x5 -7.0 x6 -7.0 x7 -7.0 x8 -7.0 x9 -7.0 x10 -7.0 x11 -7.0 x12 -7.0 x13 -7.0 x14 -7.0 x15 -7.0 x16 -7.0 x17  <= 15
-1.0 x0 -3.0 x1 -5.0 x2 -7.0 x3 -7.0 x4 -7.0 x5 -7.0 x6 -7.0 x7 -7.0 x8 -7.0 x9 -7.0 x10 -7.0 x11 -7.0 x12 -7.0 x13 -7.0 x14 -7.0 x15 -7.0 x16 -7.0 x17  >= -1
-1.0 x0 +1.0 x1 +3.0 x2 +1.0 x3 +1.0 x4 +1.0 x5 +1.0 x6 +1.0 x7 +1.0 x8 +1.0 x9 +1.0 x10 +1.0 x11 +1.0 x12 +1.0 x13 +1.0 x14 +1.0 x15 +1.0 x16 +1.0 x17  <= 15
-1.0 x0 +1.0 x1 +3.0 x2 +1.0 x3 +1.0 x4 +1.0 x5 +1.0 x6 +1.0 x7 +1.0 x8 +1.0 x9 +1.0 x10 +1.0 x11 +1.0 x12 +1.0 x13 +1.0 x14 +1.0 x15 +1.0 x16 +1.0 x17  >= -1
-1.0 x0 +1.0 x1 +3.0 x2 +1.0 x3 +1.0 x4 +1.0 x5 +1.0 x6 +1.0 x7 +1.0 x8 +1.0 x9 +1.0 x10 +1.0 x11 +1.0 x12 +1.0 x13 +1.0 x14 +1.0 x15 +1.0 x16 +1.0 x17  <= 15
-1.0 x0 +1.0 x1 +3.0 x2 +1.0 x3 +1.0 x4 +1.0 x5 +1.0 x6 +1.0 x7 +1.0 x8 +1.0 x9 +1.0 x10 +1.0 x11 +1.0 x12 +1.0 x13 +1.0 x14 +1.0 x15 +1.0 x16 +1.0 x17  >= -1
1.0 x0 +1.0 x1 +1.0 x2 +1.0 x3 +1.0 x4 -1.0 x5 +1.0 x6 +1.0 x7 +1.0 x8 +3.0 x9 +1.0 x10 +1.0 x11 +1.0 x12 +1.0 x13 +1.0 x14 +1.0 x15 +1.0 x16 +1.0 x17  <= 15
1.0 x0 +1.0 x1 +1.0 x2 +1.0 x3 +1.0 x4 -1.0 x5 +1.0 x6 +1.0 x7 +1.0 x8 +3.0 x9 +1.0 x10 +1.0 x11 +1.0 x12 +1.0 x13 +1.0 x14 +1.0 x15 +1.0 x16 +1.0 x17  >= -1
1.0 x0 +1.0 x1 +1.0 x2 +1.0 x3 +1.0 x4 -1.0 x5 +1.0 x6 +1.0 x7 +1.0 x8 +3.0 x9 +1.0 x10 +1.0 x11 +1.0 x12 +1.0 x13 +1.0 x14 +1.0 x15 +1.0 x16 +1.0 x17  <= 15
1.0 x0 +1.0 x1 +1.0 x2 +1.0 x3 +1.0 x4 -1.0 x5 +1.0 x6 +1.0 x7 +1.0 x8 +3.0 x9 +1.0 x10 +1.0 x11 +1.0 x12 +1.0 x13 +1.0 x14 +1.0 x15 +1.0 x16 +1.0 x17  >= -1
1.0 x0 +1.0 x1 +1.0 x2 +1.0 x3 +1.0 x4 +3.0 x5 +1.0 x6 +1.0 x7 +1.0 x8 -1.0 x9 +1.0 x10 +1.0 x11 +1.0 x12 +1.0 x13 +1.0 x14 +1.0 x15 +1.0 x16 +1.0 x17  <= 15
1.0 x0 +1.0 x1 +1.0 x2 +1.0 x3 +1.0 x4 +3.0 x5 +1.0 x6 +1.0 x7 +1.0 x8 -1.0 x9 +1.0 x10 +1.0 x11 +1.0 x12 +1.0 x13 +1.0 x14 +1.0 x15 +1.0 x16 +1.0 x17  >= -1
1.0 x0 +1.0 x1 +1.0 x2 +1.0 x3 +1.0 x4 +3.0 x5 +1.0 x6 +1.0 x7 +1.0 x8 -1.0 x9 +1.0 x10 +1.0 x11 +1.0 x12 +1.0 x13 +1.0 x14 +1.0 x15 +1.0 x16 +1.0 x17  <= 15
1.0 x0 +1.0 x1 +1.0 x2 +1.0 x3 +1.0 x4 +3.0 x5 +1.0 x6 +1.0 x7 +1.0 x8 -1.0 x9 +1.0 x10 +1.0 x11 +1.0 x12 +1.0 x13 +1.0 x14 +1.0 x15 +1.0 x16 +1.0 x17  >= -1
-1.0 x0 -1.0 x1 -1.0 x2 +1.0 x3 +1.0 x4 +1.0 x5 +1.0 x6 +3.0 x7 +1.0 x8 +1.0 x9 +1.0 x10 +3.0 x11 +1.0 x12 +1.0 x13 +1.0 x14 +1.0 x15 +1.0 x16 +1.0 x17  <= 15
-1.0 x0 -1.0 x1 -1.0 x2 +1.0 x3 +1.0 x4 +1.0 x5 +1.0 x6 +3.0 x7 +1.0 x8 +1.0 x9 +1.0 x10 +3.0 x11 +1.0 x12 +1.0 x13 +1.0 x14 +1.0 x15 +1.0 x16 +1.0 x17  >= -1
-1.0 x0 -1.0 x1 -1.0 x2 +1.0 x3 +1.0 x4 +1.0 x5 +1.0 x6 +3.0 x7 +1.0 x8 +1.0 x9 +1.0 x10 +3.0 x11 +1.0 x12 +1.0 x13 +1.0 x14 +1.0 x15 +1.0 x16 +1.0 x17  <= 15
-1.0 x0 -1.0 x1 -1.0 x2 +1.0 x3 +1.0 x4 +1.0 x5 +1.0 x6 +3.0 x7 +1.0 x8 +1.0 x9 +1.0 x10 +3.0 x11 +1.0 x12 +1.0 x13 +1.0 x14 +1.0 x15 +1.0 x16 +1.0 x17  >= -1
-1.0 x0 -1.0 x1 -1.0 x2 +1.0 x3 +1.0 x4 +1.0 x5 +1.0 x6 -1.0 x7 +1.0 x8 +1.0 x9 +1.0 x10 -1.0 x11 +1.0 x12 +1.0 x13 +1.0 x14 +1.0 x15 +1.0 x16 +1.0 x17  <= 15
-1.0 x0 -1.0 x1 -1.0 x2 +1.0 x3 +1.0 x4 +1.0 x5 +1.0 x6 -1.0 x7 +1.0 x8 +1.0 x9 +1.0 x10 -1.0 x11 +1.0 x12 +1.0 x13 +1.0 x14 +1.0 x15 +1.0 x16 +1.0 x17  >= -1
-1.0 x0 -1.0 x1 -1.0 x2 +1.0 x3 +1.0 x4 +1.0 x5 +1.0 x6 -1.0 x7 +1.0 x8 +1.0 x9 +1.0 x10 -1.0 x11 +1.0 x12 +1.0 x13 +1.0 x14 +1.0 x15 +1.0 x16 +1.0 x17  <= 15
-1.0 x0 -1.0 x1 -1.0 x2 +1.0 x3 +1.0 x4 +1.0 x5 +1.0 x6 -1.0 x7 +1.0 x8 +1.0 x9 +1.0 x10 -1.0 x11 +1.0 x12 +1.0 x13 +1.0 x14 +1.0 x15 +1.0 x16 +1.0 x17  >= -1
x2 - x3 = 0
x8 - x9 = 0
x12 - x17 = 0
x13 - x16 = 0
x14 - x18 = 0
x15 - x19 = 0
x21 - x23 = 0
x22 - x24 = 0
End
